# --- AXSF block for ---- iev =    49  freq =    1624.294043 cm-1
ANIMSTEPS  400
ATOMS    1
   8   0.5551696   3.6730147  19.0034196
   1   0.5105578   3.7020796  18.0205409
   1   1.4048160   3.1821771  19.1397656
   8   0.4730639   6.7205316  18.9282450
   1   0.5692568   5.7603468  19.1115640
   1   1.3524055   7.1181972  19.1111942
   8   3.1518254   8.1701094  19.0031808
   1   3.1039450   8.2011065  18.0208426
   1   4.0005268   7.6796430  19.1437162
   8   3.0696072   2.2232193  18.9282869
   1   3.1639769   1.2628690  19.1110137
   1   3.9481857   2.6225739  19.1108246
   8   5.7479216   3.6729918  19.0034503
   1   5.7034182   3.7020333  18.0205667
   1   6.5975803   3.1821784  19.1397664
   8   5.6658650   6.7205665  18.9283414
   1   5.7621988   5.7603929  19.1116844
   1   6.5452973   7.1180078  19.1113422
   8   8.3447381   8.1700862  19.0032223
   1   8.2973682   8.2007576  18.0207986
   1   9.1935832   7.6795423  19.1430424
   8   8.2625042   2.2232286  18.9283487
   1   8.3568218   1.2628677  19.1110175
   1   9.1410358   2.6226702  19.1161319
ATOMS    2
   8   0.5547265   3.6732634  19.0039067
   1   0.5162690   3.6987807  18.0200703
   1   1.4061196   3.1815589  19.1322131
   8   0.4732926   6.7203969  18.9283417
   1   0.5666214   5.7600006  19.1108891
   1   1.3513964   7.1207060  19.1104453
   8   3.1516297   8.1702247  19.0034196
   1   3.1065905   8.1996056  18.0206709
   1   4.0011176   7.6792574  19.1400836
   8   3.0699776   2.2229989  18.9284433
   1   3.1596750   1.2622510  19.1097922
   1   3.9465417   2.6266748  19.1097181
   8   5.7474753   3.6732423  19.0039386
   1   5.7091575   3.6987184  18.0200929
   1   6.5988916   3.1815618  19.1321897
   8   5.6660807   6.7204392  18.9284315
   1   5.7597121   5.7600698  19.1110496
   1   6.5443396   7.1203739  19.1106477
   8   8.3445020   8.1702250  19.0035026
   1   8.3005384   8.1989631  18.0205819
   1   9.1942695   7.6790948  19.1387566
   8   8.2628814   2.2230037  18.9285077
   1   8.3524354   1.2622415  19.1097842
   1   9.1393582   2.6268516  19.1150031
ATOMS    3
   8   0.5542836   3.6735120  19.0043935
   1   0.5219773   3.6954835  18.0196000
   1   1.4074226   3.1809411  19.1246643
   8   0.4735211   6.7202622  18.9284384
   1   0.5639872   5.7596546  19.1102146
   1   1.3503878   7.1232136  19.1096969
   8   3.1514341   8.1703400  19.0036583
   1   3.1092347   8.1981055  18.0204993
   1   4.0017082   7.6788721  19.1364529
   8   3.0703477   2.2227787  18.9285996
   1   3.1553751   1.2616334  19.1085714
   1   3.9448985   2.6307737  19.1086122
   8   5.7470293   3.6734927  19.0044267
   1   5.7148939   3.6954051  18.0196193
   1   6.6002023   3.1809456  19.1246169
   8   5.6662964   6.7203120  18.9285215
   1   5.7572267   5.7597469  19.1104150
   1   6.5433824   7.1227388  19.1099535
   8   8.3442661   8.1703638  19.0037827
   1   8.3037070   8.1971694  18.0203653
   1   9.1949555   7.6786475  19.1344729
   8   8.2632584   2.2227788  18.9286666
   1   8.3480512   1.2616156  19.1085515
   1   9.1376815   2.6310308  19.1138749
ATOMS    4
   8   0.5538410   3.6737605  19.0048799
   1   0.5276813   3.6921888  18.0191299
   1   1.4087247   3.1803237  19.1171212
   8   0.4737495   6.7201276  18.9285350
   1   0.5613551   5.7593089  19.1095406
   1   1.3493799   7.1257193  19.1089490
   8   3.1512386   8.1704552  19.0038967
   1   3.1118769   8.1966065  18.0203279
   1   4.0022982   7.6784870  19.1328249
   8   3.0707176   2.2225586  18.9287558
   1   3.1510785   1.2610162  19.1073515
   1   3.9432566   2.6348695  19.1075071
   8   5.7465835   3.6737428  19.0049145
   1   5.7206261   3.6920943  18.0191461
   1   6.6015119   3.1803298  19.1170496
   8   5.6665119   6.7201850  18.9286115
   1   5.7547431   5.7594243  19.1097810
   1   6.5424259   7.1251019  19.1092598
   8   8.3440303   8.1705024  19.0040627
   1   8.3068732   8.1953771  18.0201489
   1   9.1956409   7.6782006  19.1301923
   8   8.2636351   2.2225542  18.9288253
   1   8.3436703   1.2609902  19.1073198
   1   9.1360060   2.6352070  19.1127476
ATOMS    5
   8   0.5533989   3.6740086  19.0053658
   1   0.5333798   3.6888973  18.0186604
   1   1.4100254   3.1797069  19.1095854
   8   0.4739777   6.7199932  18.9286315
   1   0.5587255   5.7589635  19.1088673
   1   1.3483729   7.1282225  19.1082018
   8   3.1510434   8.1705703  19.0041350
   1   3.1145165   8.1951090  18.0201566
   1   4.0028877   7.6781023  19.1292004
   8   3.0710871   2.2223387  18.9289119
   1   3.1467861   1.2603996  19.1061328
   1   3.9416162   2.6389613  19.1064032
   8   5.7461382   3.6739928  19.0054017
   1   5.7263526   3.6887868  18.0186733
   1   6.6028203   3.1797146  19.1094898
   8   5.6667271   6.7200580  18.9287015
   1   5.7522619   5.7591019  19.1091476
   1   6.5414704   7.1274627  19.1085668
   8   8.3437948   8.1706409  19.0043423
   1   8.3100363   8.1935865  18.0199326
   1   9.1963257   7.6777541  19.1259159
   8   8.2640114   2.2223297  18.9289839
   1   8.3392936   1.2603654  19.1060892
   1   9.1343322   2.6393790  19.1116213
ATOMS    6
   8   0.5529573   3.6742565  19.0058512
   1   0.5390712   3.6856099  18.0181914
   1   1.4113246   3.1790909  19.1020590
   8   0.4742055   6.7198589  18.9287280
   1   0.5560991   5.7586185  19.1081948
   1   1.3473673   7.1307226  19.1074556
   8   3.1508484   8.1706852  19.0043729
   1   3.1171529   8.1936133  18.0199855
   1   4.0034765   7.6777180  19.1255804
   8   3.0714562   2.2221191  18.9290677
   1   3.1424991   1.2597838  19.1049156
   1   3.9399779   2.6430481  19.1053005
   8   5.7456935   3.6742424  19.0058884
   1   5.7320721   3.6854833  18.0182011
   1   6.6041271   3.1791002  19.1019393
   8   5.6669421   6.7199312  18.9287913
   1   5.7497838   5.7587800  19.1085149
   1   6.5405160   7.1298206  19.1078747
   8   8.3435595   8.1707793  19.0046216
   1   8.3131956   8.1917981  18.0197167
   1   9.1970096   7.6773082  19.1216449
   8   8.2643873   2.2221055  18.9291423
   1   8.3349224   1.2597413  19.1048602
   1   9.1326604   2.6435459  19.1104965
ATOMS    7
   8   0.5525164   3.6745040  19.0063358
   1   0.5447541   3.6823273  18.0177231
   1   1.4126218   3.1784758  19.0945437
   8   0.4744331   6.7197249  18.9288242
   1   0.5534767   5.7582740  19.1075232
   1   1.3463631   7.1332191  19.1067105
   8   3.1506536   8.1708000  19.0046105
   1   3.1197853   8.1921199  18.0198147
   1   4.0040644   7.6773344  19.1219658
   8   3.0718247   2.2218998  18.9292234
   1   3.1382183   1.2591689  19.1037002
   1   3.9383420   2.6471287  19.1041996
   8   5.7452494   3.6744916  19.0063743
   1   5.7377830   3.6821848  18.0177296
   1   6.6054319   3.1784867  19.0944000
   8   5.6671568   6.7198046  18.9288809
   1   5.7473094   5.7584586  19.1078832
   1   6.5395630   7.1321750  19.1071836
   8   8.3433246   8.1709174  19.0049005
   1   8.3163501   8.1900124  18.0195010
   1   9.1976926   7.6768629  19.1173802
   8   8.2647626   2.2218817  18.9293005
   1   8.3305577   1.2591182  19.1036330
   1   9.1309912   2.6477066  19.1093733
ATOMS    8
   8   0.5520762   3.6747510  19.0068196
   1   0.5504272   3.6790505  18.0172557
   1   1.4139168   3.1778617  19.0870415
   8   0.4746602   6.7195910  18.9289203
   1   0.5508588   5.7579302  19.1068529
   1   1.3453607   7.1357111  19.1059666
   8   3.1504592   8.1709146  19.0048477
   1   3.1224132   8.1906290  18.0196441
   1   4.0046513   7.6769514  19.1183575
   8   3.0721926   2.2216809  18.9293787
   1   3.1339450   1.2585550  19.1024869
   1   3.9367090   2.6512024  19.1031005
   8   5.7448061   3.6747404  19.0068594
   1   5.7434841   3.6788919  18.0172590
   1   6.6067345   3.1778743  19.0868738
   8   5.6673711   6.7196782  18.9289704
   1   5.7448393   5.7581377  19.1072526
   1   6.5386117   7.1345253  19.1064936
   8   8.3430902   8.1710553  19.0051789
   1   8.3194992   8.1882298  18.0192858
   1   9.1983743   7.6764184  19.1131229
   8   8.2651372   2.2216583  18.9294584
   1   8.3262005   1.2584962  19.1024079
   1   9.1293248   2.6518601  19.1082520
ATOMS    9
   8   0.5516369   3.6749976  19.0073025
   1   0.5560891   3.6757801  18.0167891
   1   1.4152092   3.1772489  19.0795541
   8   0.4748869   6.7194574  18.9290162
   1   0.5482461   5.7575870  19.1061839
   1   1.3443602   7.1381983  19.1052243
   8   3.1502652   8.1710289  19.0050844
   1   3.1250359   8.1891411  18.0194740
   1   4.0052370   7.6765691  19.1147563
   8   3.0725597   2.2214624  18.9295338
   1   3.1296802   1.2579424  19.1012760
   1   3.9350792   2.6552679  19.1020036
   8   5.7443637   3.6749887  19.0073435
   1   5.7491739   3.6756056  18.0167893
   1   6.6080344   3.1772631  19.0793625
   8   5.6675850   6.7195520  18.9290598
   1   5.7423741   5.7578174  19.1066232
   1   6.5376623   7.1368710  19.1058051
   8   8.3428561   8.1711929  19.0054568
   1   8.3226420   8.1864508  18.0190709
   1   9.1990547   7.6759748  19.1088740
   8   8.2655112   2.2214353  18.9296160
   1   8.3218520   1.2578754  19.1011852
   1   9.1276617   2.6560053  19.1071330
ATOMS   10
   8   0.5511986   3.6752436  19.0077842
   1   0.5617383   3.6725170  18.0163236
   1   1.4164987   3.1766375  19.0720835
   8   0.4751131   6.7193242  18.9291119
   1   0.5456392   5.7572446  19.1055163
   1   1.3433620   7.1406799  19.1044836
   8   3.1500716   8.1711430  19.0053206
   1   3.1276527   8.1876565  18.0193041
   1   4.0058214   7.6761877  19.1111631
   8   3.0729260   2.2212444  18.9296885
   1   3.1254249   1.2573312  19.1000678
   1   3.9334530   2.6593244  19.1009091
   8   5.7439223   3.6752365  19.0078266
   1   5.7548509   3.6723266  18.0163206
   1   6.6093315   3.1766532  19.0718680
   8   5.6677984   6.7194261  18.9291489
   1   5.7399143   5.7574979  19.1059953
   1   6.5367150   7.1392114  19.1051181
   8   8.3426227   8.1713302  19.0057341
   1   8.3257778   8.1846757  18.0188566
   1   9.1997335   7.6755321  19.1046346
   8   8.2658843   2.2212127  18.9297732
   1   8.3175132   1.2572560  19.0999653
   1   9.1260023   2.6601413  19.1060165
ATOMS   11
   8   0.5507614   3.6754890  19.0082648
   1   0.5673735   3.6692621  18.0158593
   1   1.4177850   3.1760275  19.0646314
   8   0.4753387   6.7191912  18.9292074
   1   0.5430388   5.7569030  19.1048505
   1   1.3423663   7.1431553  19.1037447
   8   3.1498786   8.1712568  19.0055562
   1   3.1302630   8.1861756  18.0191347
   1   4.0064044   7.6758073  19.1075789
   8   3.0732914   2.2210270  18.9298428
   1   3.1211802   1.2567214  19.0988626
   1   3.9318309   2.6633707  19.0998174
   8   5.7434819   3.6754837  19.0083084
   1   5.7605139   3.6690558  18.0158531
   1   6.6106254   3.1760448  19.0643921
   8   5.6680113   6.7193006  18.9292378
   1   5.7374607   5.7571791  19.1053689
   1   6.5357700   7.1415460  19.1044328
   8   8.3423897   8.1714671  19.0060106
   1   8.3289058   8.1829050  18.0186428
   1   9.2004107   7.6750906  19.1004057
   8   8.2662564   2.2209908  18.9299301
   1   8.3131851   1.2566381  19.0987484
   1   9.1243471   2.6642671  19.1049028
ATOMS   12
   8   0.5503254   3.6757338  19.0087440
   1   0.5729933   3.6660160  18.0153962
   1   1.4190678   3.1754193  19.0571997
   8   0.4755637   6.7190586  18.9293026
   1   0.5404455   5.7565624  19.1041864
   1   1.3413733   7.1456240  19.1030079
   8   3.1496860   8.1713703  19.0057911
   1   3.1328661   8.1846988  18.0189658
   1   4.0069857   7.6754279  19.1040045
   8   3.0736559   2.2208101  18.9299967
   1   3.1169471   1.2561134  19.0976607
   1   3.9302132   2.6674060  19.0987287
   8   5.7430428   3.6757301  19.0087890
   1   5.7661613   3.6657940  18.0153868
   1   6.6119157   3.1754382  19.0569367
   8   5.6682236   6.7191754  18.9293265
   1   5.7350138   5.7568612  19.1047442
   1   6.5348277   7.1438742  19.1037493
   8   8.3421575   8.1716037  19.0062864
   1   8.3320252   8.1811391  18.0184295
   1   9.2010860   7.6746503  19.0961884
   8   8.2666275   2.2207694  18.9300865
   1   8.3088689   1.2560220  19.0975349
   1   9.1226963   2.6683815  19.1037921
ATOMS   13
   8   0.5498907   3.6759778  19.0092218
   1   0.5785962   3.6627797  18.0149345
   1   1.4203467   3.1748128  19.0497903
   8   0.4757881   6.7189265  18.9293975
   1   0.5378600   5.7562228  19.1035244
   1   1.3403833   7.1480853  19.1022733
   8   3.1494940   8.1714834  19.0060254
   1   3.1354615   8.1832264  18.0187974
   1   4.0075653   7.6750496  19.1004408
   8   3.0740192   2.2205939  18.9301501
   1   3.1127266   1.2555071  19.0964624
   1   3.9286004   2.6714293  19.0976432
   8   5.7426050   3.6759759  19.0092680
   1   5.7717919   3.6625418  18.0149220
   1   6.6132021   3.1748333  19.0495036
   8   5.6684353   6.7190505  18.9294149
   1   5.7325742   5.7565443  19.1041214
   1   6.5338881   7.1461955  19.1030680
   8   8.3419259   8.1717399  19.0065614
   1   8.3351354   8.1793786  18.0182169
   1   9.2017593   7.6742113  19.0919837
   8   8.2669976   2.2205488  18.9302425
   1   8.3045657   1.2554076  19.0963249
   1   9.1210506   2.6724836  19.1026847
ATOMS   14
   8   0.5494574   3.6762210  19.0096981
   1   0.5841809   3.6595539  18.0144743
   1   1.4216215   3.1742084  19.0424049
   8   0.4760117   6.7187947  18.9294921
   1   0.5352829   5.7558843  19.1028645
   1   1.3393965   7.1505385  19.1015410
   8   3.1493026   8.1715962  19.0062588
   1   3.1380485   8.1817587  18.0186295
   1   4.0081431   7.6746726  19.0968887
   8   3.0743813   2.2203784  18.9303031
   1   3.1085199   1.2549028  19.0952680
   1   3.9269928   2.6754394  19.0965612
   8   5.7421686   3.6762208  19.0097456
   1   5.7774041   3.6593003  18.0144587
   1   6.6144844   3.1742304  19.0420946
   8   5.6686462   6.7189261  18.9295030
   1   5.7301426   5.7562284  19.1035006
   1   6.5329516   7.1485092  19.1023888
   8   8.3416950   8.1718756  19.0068354
   1   8.3382354   8.1776237  18.0180050
   1   9.2024304   7.6737737  19.0877927
   8   8.2673664   2.2203288  18.9303979
   1   8.3002764   1.2547953  19.0951189
   1   9.1194101   2.6765724  19.1015809
ATOMS   15
   8   0.5490256   3.6764634  19.0101727
   1   0.5897461   3.6563394  18.0140158
   1   1.4228919   3.1736060  19.0350454
   8   0.4762345   6.7186634  18.9295864
   1   0.5327148   5.7555470  19.1022069
   1   1.3384131   7.1529832  19.1008113
   8   3.1491119   8.1717086  19.0064915
   1   3.1406263   8.1802962  18.0184622
   1   4.0087188   7.6742969  19.0933490
   8   3.0747422   2.2201637  18.9304555
   1   3.1043279   1.2543007  19.0940778
   1   3.9253908   2.6794355  19.0954831
   8   5.7417337   3.6764649  19.0102214
   1   5.7829967   3.6560701  18.0139969
   1   6.6157621   3.1736296  19.0347116
   8   5.6688565   6.7188021  18.9295908
   1   5.7277195   5.7559136  19.1028820
   1   6.5320184   7.1508148  19.1017120
   8   8.3414650   8.1720109  19.0071086
   1   8.3413245   8.1758751  18.0177939
   1   9.2030992   7.6733376  19.0836164
   8   8.2677339   2.2201096  18.9305528
   1   8.2960021   1.2541851  19.0939172
   1   9.1177755   2.6806469  19.1004810
ATOMS   16
   8   0.5485954   3.6767048  19.0106455
   1   0.5952903   3.6531369  18.0135589
   1   1.4241574   3.1730059  19.0277136
   8   0.4764565   6.7185326  18.9296803
   1   0.5301564   5.7552109  19.1015518
   1   1.3374335   7.1554187  19.1000844
   8   3.1489220   8.1718206  19.0067233
   1   3.1431945   8.1788392  18.0182956
   1   4.0092923   7.6739226  19.0898226
   8   3.0751017   2.2199498  18.9306073
   1   3.1001517   1.2537008  19.0928921
   1   3.9237949   2.6834166  19.0944089
   8   5.7413005   3.6767080  19.0106955
   1   5.7885682   3.6528521  18.0135370
   1   6.6170351   3.1730311  19.0273564
   8   5.6690659   6.7186786  18.9296783
   1   5.7253055   5.7556000  19.1022657
   1   6.5310887   7.1531117  19.1010378
   8   8.3412359   8.1721456  19.0073807
   1   8.3444020   8.1741330  18.0175835
   1   9.2037654   7.6729032  19.0794558
   8   8.2681001   2.2198912  18.9307071
   1   8.2917439   1.2535772  19.0927199
   1   9.1161469   2.6847060  19.0993852
ATOMS   17
   8   0.5481670   3.6769453  19.0111164
   1   0.6008122   3.6499474  18.0131039
   1   1.4254179   3.1724082  19.0204113
   8   0.4766776   6.7184023  18.9297738
   1   0.5276083   5.7548762  19.1008993
   1   1.3364577   7.1578444  19.0993604
   8   3.1487327   8.1719321  19.0069542
   1   3.1457524   8.1773881  18.0181296
   1   4.0098636   7.6735498  19.0863104
   8   3.0754598   2.2197367  18.9307585
   1   3.0959923   1.2531033  19.0917111
   1   3.9222054   2.6873816  19.0933392
   8   5.7408690   3.6769502  19.0111677
   1   5.7941174   3.6496470  18.0130789
   1   6.6183030   3.1724350  19.0200308
   8   5.6692745   6.7185555  18.9297654
   1   5.7229012   5.7552877  19.1016519
   1   6.5301628   7.1553994  19.1003662
   8   8.3410076   8.1722799  19.0076516
   1   8.3474672   8.1723979  18.0173740
   1   9.2044290   7.6724706  19.0753120
   8   8.2684648   2.2196737  18.9308608
   1   8.2875029   1.2529718  19.0915275
   1   9.1145250   2.6887488  19.0982939
ATOMS   18
   8   0.5477404   3.6771847  19.0115852
   1   0.6063104   3.6467716  18.0126509
   1   1.4266729   3.1718131  19.0131403
   8   0.4768977   6.7182726  18.9298670
   1   0.5250711   5.7545430  19.1002496
   1   1.3354862   7.1602596  19.0986395
   8   3.1485443   8.1720431  19.0071840
   1   3.1482992   8.1759432  18.0179643
   1   4.0104324   7.6731786  19.0828133
   8   3.0758163   2.2195245  18.9309091
   1   3.0918507   1.2525084  19.0905352
   1   3.9206227   2.6913297  19.0922740
   8   5.7404393   3.6771913  19.0116378
   1   5.7996427   3.6464557  18.0126227
   1   6.6195654   3.1718414  19.0127366
   8   5.6694822   6.7184330  18.9298521
   1   5.7205072   5.7549767  19.1010407
   1   6.5292408   7.1576772  19.0996976
   8   8.3407804   8.1724135  19.0079215
   1   8.3505191   8.1706702  18.0171653
   1   9.2050897   7.6720398  19.0711859
   8   8.2688279   2.2194572  18.9310138
   1   8.2832800   1.2523689  19.0903402
   1   9.1129099   2.6927742  19.0972072
ATOMS   19
   8   0.5473157   3.6774231  19.0120520
   1   0.6117836   3.6436102  18.0121999
   1   1.4279222   3.1712207  19.0059025
   8   0.4771168   6.7181435  18.9299597
   1   0.5225454   5.7542112  19.0996029
   1   1.3345191   7.1626639  19.0979219
   8   3.1483568   8.1721537  19.0074128
   1   3.1508345   8.1745049  18.0177998
   1   4.0109986   7.6728091  19.0793321
   8   3.0761712   2.2193133  18.9310589
   1   3.0877280   1.2519162  19.0893647
   1   3.9190472   2.6952597  19.0912136
   8   5.7400117   3.6774314  19.0121058
   1   5.8051428   3.6432789  18.0121686
   1   6.6208220   3.1712506  19.0054757
   8   5.6696890   6.7183111  18.9299385
   1   5.7181241   5.7546671  19.1004323
   1   6.5283230   7.1599447  19.0990320
   8   8.3405542   8.1725465  19.0081901
   1   8.3535572   8.1689504  18.0169577
   1   9.2057474   7.6716109  19.0670786
   8   8.2691893   2.2192416  18.9311662
   1   8.2790764   1.2517688  19.0891583
   1   9.1113023   2.6967813  19.0961255
ATOMS   20
   8   0.5468931   3.6776603  19.0125165
   1   0.6172304   3.6404640  18.0117510
   1   1.4291656   3.1706312  18.9986995
   8   0.4773349   6.7180150  18.9300519
   1   0.5200320   5.7538811  19.0989593
   1   1.3335567   7.1650566  19.0972077
   8   3.1481702   8.1722637  19.0076406
   1   3.1533576   8.1730735  18.0176361
   1   4.0115620   7.6724414  19.0758677
   8   3.0765244   2.2191032  18.9312081
   1   3.0836251   1.2513268  19.0881998
   1   3.9174793   2.6991709  19.0901584
   8   5.7395860   3.6776703  19.0125715
   1   5.8106165   3.6401174  18.0117167
   1   6.6220726   3.1706625  18.9982497
   8   5.6698948   6.7181897  18.9300244
   1   5.7157525   5.7543590  19.0998269
   1   6.5274097   7.1622013  19.0983696
   8   8.3403290   8.1726789  19.0084574
   1   8.3565807   8.1672389  18.0167510
   1   9.2064020   7.6711842  19.0629911
   8   8.2695491   2.2190270  18.9313178
   1   8.2748930   1.2511716  19.0879821
   1   9.1097024   2.7007691  19.0950489
ATOMS   21
   8   0.5464727   3.6778963  19.0129786
   1   0.6226495   3.6373339  18.0113045
   1   1.4304025   3.1700447  18.9915332
   8   0.4775519   6.7178871  18.9301437
   1   0.5175313   5.7535526  19.0983189
   1   1.3325991   7.1674371  19.0964972
   8   3.1479845   8.1723731  19.0078671
   1   3.1558678   8.1716494  18.0174732
   1   4.0121226   7.6720755  19.0724210
   8   3.0768758   2.2188940  18.9313565
   1   3.0795432   1.2507405  19.0870408
   1   3.9159194   2.7030621  19.0891085
   8   5.7391626   3.6779079  19.0130349
   1   5.8160623   3.6369720  18.0112672
   1   6.6233168   3.1700775  18.9910605
   8   5.6700995   6.7180690  18.9301099
   1   5.7133930   5.7540524  19.0992245
   1   6.5265009   7.1644464  19.0977105
   8   8.3401051   8.1728106  19.0087233
   1   8.3595887   8.1655361  18.0165454
   1   9.2070532   7.6707596  19.0589244
   8   8.2699069   2.2188136  18.9314686
   1   8.2707310   1.2505774  19.0868118
   1   9.1081106   2.7047366  19.0939779
ATOMS   22
   8   0.5460545   3.6781310  19.0134382
   1   0.6280395   3.6342206  18.0108604
   1   1.4316329   3.1694613  18.9844053
   8   0.4777677   6.7177600  18.9302350
   1   0.5150441   5.7532259  19.0976820
   1   1.3316467   7.1698048  19.0957905
   8   3.1477998   8.1724820  19.0080925
   1   3.1583645   8.1702329  18.0173111
   1   4.0126802   7.6717116  19.0689927
   8   3.0772253   2.2186861  18.9315041
   1   3.0754831   1.2501573  19.0858881
   1   3.9143678   2.7069324  19.0880643
   8   5.7387414   3.6781443  19.0134958
   1   5.8214788   3.6338435  18.0108200
   1   6.6245544   3.1694956  18.9839099
   8   5.6703031   6.7179489  18.9301950
   1   5.7110461   5.7537476  19.0986254
   1   6.5255971   7.1666794  19.0970551
   8   8.3398823   8.1729416  19.0089879
   1   8.3625807   8.1638425  18.0163408
   1   9.2077009   7.6703373  19.0548795
   8   8.2702629   2.2186013  18.9316186
   1   8.2665912   1.2499864  19.0856479
   1   9.1065274   2.7086829  19.0929126
ATOMS   23
   8   0.5456387   3.6783644  19.0138953
   1   0.6333991   3.6311248  18.0104187
   1   1.4328563   3.1688812  18.9773177
   8   0.4779823   6.7176335  18.9303258
   1   0.5125708   5.7529011  19.0970487
   1   1.3306997   7.1721592  19.0950877
   8   3.1476161   8.1725902  19.0083165
   1   3.1608472   8.1688245  18.0171500
   1   4.0132347   7.6713498  19.0655837
   8   3.0775729   2.2184793  18.9316509
   1   3.0714460   1.2495774  19.0847418
   1   3.9128250   2.7107809  19.0870260
   8   5.7383226   3.6783794  19.0139541
   1   5.8268648   3.6307326  18.0103753
   1   6.6257850   3.1689171  18.9767996
   8   5.6705056   6.7178295  18.9302795
   1   5.7087125   5.7534444  19.0980296
   1   6.5246984   7.1688998  19.0964033
   8   8.3396607   8.1730719  19.0092509
   1   8.3655557   8.1621584  18.0161375
   1   9.2083449   7.6699173  19.0508574
   8   8.2706169   2.2183902  18.9317678
   1   8.2624748   1.2493988  19.0844905
   1   9.1049531   2.7126068  19.0918533
ATOMS   24
   8   0.5452253   3.6785965  19.0143497
   1   0.6387270   3.6280473  18.0099797
   1   1.4340725   3.1683045  18.9702720
   8   0.4781956   6.7175078  18.9304161
   1   0.5101122   5.7525781  19.0964192
   1   1.3297583   7.1744996  19.0943892
   8   3.1474335   8.1726978  19.0085393
   1   3.1633151   8.1674243  18.0169899
   1   4.0137859   7.6709901  19.0621950
   8   3.0779184   2.2182737  18.9317968
   1   3.0674327   1.2490009  19.0836023
   1   3.9112914   2.7146066  19.0859938
   8   5.7379063   3.6786131  19.0144096
   1   5.8322190   3.6276401  18.0099333
   1   6.6270083   3.1683419  18.9697313
   8   5.6707068   6.7177108  18.9303636
   1   5.7063927   5.7531430  19.0974374
   1   6.5238050   7.1711071  19.0957553
   8   8.3394405   8.1732014  19.0095124
   1   8.3685131   8.1604843  18.0159353
   1   9.2089852   7.6694999  19.0468592
   8   8.2709687   2.2181803  18.9319161
   1   8.2583828   1.2488146  19.0833400
   1   9.1033881   2.7165076  19.0908003
ATOMS   25
   8   0.5448145   3.6788271  19.0148012
   1   0.6440219   3.6249889  18.0095434
   1   1.4352811   3.1677314  18.9632699
   8   0.4784076   6.7173829  18.9305058
   1   0.5076689   5.7522572  19.0957935
   1   1.3288227   7.1768256  19.0936949
   8   3.1472521   8.1728047  19.0087606
   1   3.1657678   8.1660328  18.0168307
   1   4.0143336   7.6706327  19.0588272
   8   3.0782617   2.2180694  18.9319418
   1   3.0634443   1.2484280  19.0824699
   1   3.9097672   2.7184086  19.0849680
   8   5.7374925   3.6788453  19.0148624
   1   5.8375399   3.6245669  18.0094940
   1   6.6282240   3.1677703  18.9627069
   8   5.6709069   6.7175928  18.9304472
   1   5.7040873   5.7528435  19.0968488
   1   6.5229171   7.1733007  19.0951114
   8   8.3392217   8.1733301  19.0097722
   1   8.3714522   8.1588205  18.0157344
   1   9.2096215   7.6690850  19.0428857
   8   8.2713184   2.2179718  18.9320635
   1   8.2543162   1.2482341  19.0821966
   1   9.1018328   2.7203841  19.0897538
ATOMS   26
   8   0.5444063   3.6790562  19.0152498
   1   0.6492824   3.6219504  18.0091099
   1   1.4364819   3.1671620  18.9563133
   8   0.4786182   6.7172588  18.9305949
   1   0.5052414   5.7519383  19.0951719
   1   1.3278931   7.1791364  19.0930052
   8   3.1470719   8.1729110  19.0089806
   1   3.1682046   8.1646504  18.0166726
   1   4.0148778   7.6702775  19.0554813
   8   3.0786028   2.2178664  18.9320858
   1   3.0594818   1.2478588  19.0813449
   1   3.9082529   2.7221860  19.0839488
   8   5.7370814   3.6790760  19.0153122
   1   5.8428264   3.6215135  18.0090576
   1   6.6294318   3.1672024  18.9557281
   8   5.6711056   6.7174756  18.9305302
   1   5.7017968   5.7525460  19.0962641
   1   6.5220349   7.1754801  19.0944717
   8   8.3390043   8.1734579  19.0100304
   1   8.3743723   8.1571675  18.0155348
   1   9.2102536   7.6686728  19.0389380
   8   8.2716658   2.2177646  18.9322099
   1   8.2502759   1.2476573  19.0810606
   1   9.1002876   2.7242355  19.0887141
ATOMS   27
   8   0.5440009   3.6792837  19.0156954
   1   0.6545073   3.6189324  18.0086794
   1   1.4376745   3.1665965  18.9494038
   8   0.4788274   6.7171356  18.9306834
   1   0.5028303   5.7516216  19.0945545
   1   1.3269699   7.1814316  19.0923201
   8   3.1468928   8.1730165  19.0091990
   1   3.1706248   8.1632773  18.0165155
   1   4.0154183   7.6699248  19.0521580
   8   3.0789416   2.2176648  18.9322289
   1   3.0555461   1.2472934  19.0802274
   1   3.9067489   2.7259378  19.0829366
   8   5.7366732   3.6793052  19.0157590
   1   5.8480770   3.6184808  18.0086241
   1   6.6306315   3.1666383  18.9487965
   8   5.6713030   6.7173592  18.9306126
   1   5.6995218   5.7522504  19.0956833
   1   6.5211588   7.1776447  19.0938363
   8   8.3387883   8.1735849  19.0102868
   1   8.3772725   8.1555258  18.0153365
   1   9.2108815   7.6682634  19.0350170
   8   8.2720109   2.2175588  18.9323553
   1   8.2462630   1.2470844  19.0799323
   1   9.0987529   2.7280609  19.0876815
ATOMS   28
   8   0.5435984   3.6795096  19.0161378
   1   0.6596952   3.6159358  18.0082519
   1   1.4388588   3.1660350  18.9425431
   8   0.4790352   6.7170132  18.9307713
   1   0.5004363   5.7513072  19.0939415
   1   1.3260532   7.1837106  19.0916399
   8   3.1467150   8.1731213  19.0094159
   1   3.1730280   8.1619140  18.0163596
   1   4.0159550   7.6695745  19.0488583
   8   3.0792781   2.2174646  18.9323710
   1   3.0516383   1.2467321  19.0791179
   1   3.9052555   2.7296630  19.0819315
   8   5.7362678   3.6795327  19.0162026
   1   5.8532905   3.6154696  18.0081937
   1   6.6318226   3.1660783  18.9419140
   8   5.6714990   6.7172436  18.9306944
   1   5.6972629   5.7519570  19.0951066
   1   6.5202888   7.1797941  19.0932053
   8   8.3385739   8.1737110  19.0105414
   1   8.3801523   8.1538956  18.0151397
   1   9.2115049   7.6678569  19.0311238
   8   8.2723535   2.2173545  18.9324997
   1   8.2422784   1.2465156  19.0788120
   1   9.0972290   2.7318592  19.0866561
ATOMS   29
   8   0.5431989   3.6797339  19.0165769
   1   0.6648450   3.6129612  18.0078276
   1   1.4400343   3.1654776  18.9357330
   8   0.4792414   6.7168917  18.9308585
   1   0.4980599   5.7509950  19.0933330
   1   1.3251433   7.1859728  19.0909647
   8   3.1465386   8.1732253  19.0096312
   1   3.1754134   8.1605606  18.0162048
   1   4.0164877   7.6692269  19.0455828
   8   3.0796120   2.2172659  18.9325120
   1   3.0477592   1.2461749  19.0780165
   1   3.9037731   2.7333608  19.0809338
   8   5.7358654   3.6797585  19.0166429
   1   5.8584657   3.6124805  18.0077665
   1   6.6330050   3.1655223  18.9350821
   8   5.6716935   6.7171288  18.9307757
   1   5.6950207   5.7516657  19.0945342
   1   6.5194253   7.1819276  19.0925791
   8   8.3383610   8.1738362  19.0107941
   1   8.3830109   8.1522775  18.0149443
   1   9.2121237   7.6674534  19.0272592
   8   8.2726936   2.2171516  18.9326431
   1   8.2383232   1.2459509  19.0776999
   1   9.0957163   2.7356295  19.0856383
ATOMS   30
   8   0.5428024   3.6799565  19.0170127
   1   0.6699552   3.6100095  18.0074065
   1   1.4412008   3.1649244  18.9289751
   8   0.4794460   6.7167711  18.9309451
   1   0.4957017   5.7506853  19.0927291
   1   1.3242403   7.1882176  19.0902946
   8   3.1463635   8.1733285  19.0098448
   1   3.1777806   8.1592177  18.0160512
   1   4.0170164   7.6688819  19.0423325
   8   3.0799434   2.2170687  18.9326520
   1   3.0439099   1.2456219  19.0769236
   1   3.9023021   2.7370303  19.0799438
   8   5.7354660   3.6799827  19.0170799
   1   5.8636011   3.6095144  18.0073425
   1   6.6341783   3.1649706  18.9283025
   8   5.6718866   6.7170150  18.9308563
   1   5.6927956   5.7513766  19.0939661
   1   6.5185684   7.1840447  19.0919576
   8   8.3381498   8.1739604  19.0110449
   1   8.3858475   8.1506717  18.0147504
   1   9.2127378   7.6670530  19.0234243
   8   8.2730311   2.2169503  18.9327853
   1   8.2343983   1.2453906  19.0765964
   1   9.0942153   2.7393709  19.0846283
ATOMS   31
   8   0.5424090   3.6801772  19.0174451